benchmarks_vrp/CMT4/fixed_c_size/CMT4_4.vrp
NAME: CMT4_4
TYPE: CVRP
COMMENT: 1028.42 - Cluster Nr.4
DIMENSION: 15
CAPACITY: 200
EDGE_WEIGHT_TYPE: EUC_2D
NODE_COORD_TYPE: TWOD_COORDS
NODE_COORD_SECTION: 
9 2 60
4 35 35
1 20 65
14 15 47
10 16 57
3 13 52
7 8 52
13 6 68
6 5 64
8 8 56
11 17 63
15 15 60
2 20 50
12 2 48
5 15 77
DEPOT_SECTION: 
4
-1
DEMAND_SECTION: 
2 5
6 11
14 16
15 17
5 9
13 30
12 1
1 12
8 27
3 36
7 10
11 19
4 0
10 16
9 5
EOF
