benchmarks_vrp/CMT4/fixed_c_size/CMT4_4.tour
NAME: CMT4_4 solution
TYPE: TOUR
TOUR_SECTION:
4 2 3 7 12 8 9 6 13 5 1 11 15 10 -1
4 14 -1
-1
EOF